
  32    4
  10   10   10   10

   0   0   0   0   0   3 2 30 31 
   9  10  10  10  10   1 3 
   1  10  10  10  10   3 13 9 4 
   2  10  10  10  10   5 29 16 12 8 5 
   4  10  10  10  10   2 18 6 
   8  10  10  10  10   1 7 
   5  10  10  10  10   2 20 10 
   2  10  10  10  10   3 20 18 14 
  10  10  10  10  10   2 20 12 
   4  10  10  10  10   1 11 
   9  10  10  10  10   2 22 14 
   2  10  10  10  10   1 14 
   2  10  10  10  10   3 29 18 17 
   8  10  10  10  10   1 15 
   1  10  10  10  10   2 28 17 
   2  10  10  10  10   2 18 17 
   1  10  10  10  10   2 24 19 
   3  10  10  10  10   2 24 19 
   5  10  10  10  10   3 27 26 21 
  10  10  10  10  10   2 26 22 
   5  10  10  10  10   1 23 
   4  10  10  10  10   1 23 
   2  10  10  10  10   1 25 
   6  10  10  10  10   1 26 
   7  10  10  10  10   1 32
   4  10  10  10  10   1 32
   3  10  10  10  10   1 32
  10  10  10  10  10   1 32
   7  10  10  10  10   1 32
  10  10  10  10  10   1 32
   5  10  10  10  10   1 32
   0   0   0   0   0   0 
